Version identifier: 22.1.0.0 | 2022-03-09 | 1a383f8ce
CPXPARAM_Read_DataCheck                          1
CPXPARAM_Threads                                 1
CPXPARAM_TimeLimit                               3600
Tried aggregator 2 times.
MIP Presolve eliminated 408 rows and 88 columns.
MIP Presolve modified 4120 coefficients.
Aggregator did 64 substitutions.
Reduced MIP has 1139 rows, 208 columns, and 7101 nonzeros.
Reduced MIP has 154 binaries, 0 generals, 0 SOSs, and 0 indicators.
Presolve time = 0.01 sec. (11.51 ticks)
Probing fixed 0 vars, tightened 1 bounds.
Probing time = 0.00 sec. (1.99 ticks)
Tried aggregator 1 time.
Detecting symmetries...
MIP Presolve modified 22 coefficients.
Reduced MIP has 1139 rows, 208 columns, and 7101 nonzeros.
Reduced MIP has 154 binaries, 0 generals, 0 SOSs, and 0 indicators.
Presolve time = 0.01 sec. (3.83 ticks)
Probing time = 0.00 sec. (2.26 ticks)
Clique table members: 386.
MIP emphasis: balance optimality and feasibility.
MIP search method: dynamic search.
Parallel mode: none, using 1 thread.
Root relaxation solution time = 0.00 sec. (2.87 ticks)

        Nodes                                         Cuts/
   Node  Left     Objective  IInf  Best Integer    Best Bound    ItCnt     Gap

      0     0        6.3700    36                      6.3700       61         
      0     0        6.3700    13                     Cuts: 2       64         
      0     0        6.3700    18                    Cuts: 51      114         
      0     0        6.3700    13                    Cuts: 10      152         
      0     0        6.3700    16                    Cuts: 52      195         
*     0+    0                            6.3700        6.3700             0.00%
      0     0        cutoff              6.3700        6.3700      195    0.00%
Elapsed time = 0.14 sec. (146.26 ticks, tree = 0.01 MB, solutions = 1)

GUB cover cuts applied:  11
Clique cuts applied:  6
Cover cuts applied:  3
Implied bound cuts applied:  4
Mixed integer rounding cuts applied:  13
Zero-half cuts applied:  1

Root node processing (before b&c):
  Real time             =    0.14 sec. (146.30 ticks)
Sequential b&c:
  Real time             =    0.00 sec. (0.00 ticks)
                          ------------
Total (root+branch&cut) =    0.14 sec. (146.30 ticks)
